
  32    4
  10   10   10   10

   0   0   0   0   0  12 2 3 4 5 6 8 13 14 15 16 30 31 
   6   0   1   1   1   8 27 26 25 24 21 20 17 7 
   6   0   5   4   6   9 27 26 25 24 23 21 19 18 9 
   6   1   0   2   2   7 23 22 21 18 12 10 9 
   7   4   6   6   0   8 29 28 26 25 24 22 19 9 
  10   5   3   5   0   4 21 19 17 11 
   5   4   2   5   0   4 23 22 19 18 
   1   2   6   0   4   4 23 22 21 17 
   3   4   4   0   5   1 20 
   1   5   2   0   2   1 19 
   7   0   4   7   3   1 18 
   2   2   2   3   0   1 17 
  10   0   3   4   4   1 20 
   9   0   1   9   3   1 18 
  10   0   1   2   4   1 17 
   2   0   5   1   4   1 17 
   9   0   7   2   6   1 32
   1   3   5   2   0   1 32
   9   5   0   5   4   1 32
   6   0   7   5   3   1 32
   5   8   3   4   0   1 32
   2   0   5   4   6   1 32
   8   3   5   0   3   1 32
  10   7   5   3   0   1 32
   5   2   0   5   4   1 32
   6   0   5   2   3   1 32
   5   0   6   3   3   1 32
   7   5   3   7   0   1 32
   6   0   3   3   4   1 32
   3   4   0   6   8   1 32
  10   0   5   4   6   1 32
   0   0   0   0   0   0 
